c This is an instance of the exact track of PACE 2020 Challenge, see https://pacechallenge.org/2020/ 
c TYPE: generated 
c ORIGIN: Python networkx package 
c DESCRIPTION: A random cubic graph generated using random_regular_graph function from Python’s networkx package 
p tdp 50 75
1 2
1 40
1 33
2 19
2 36
3 4
3 41
3 8
4 43
4 32
5 6
5 7
5 20
6 9
6 34
7 8
7 13
8 15
9 49
9 21
10 11
10 44
10 47
11 30
11 42
12 13
12 16
12 27
13 45
14 15
14 21
14 50
15 49
16 19
16 20
17 18
17 28
17 37
18 35
18 47
19 20
21 43
22 23
22 50
22 28
23 28
23 33
24 25
24 27
24 38
25 34
25 46
26 27
26 40
26 45
29 30
29 44
29 50
30 47
31 32
31 39
31 48
32 35
33 34
35 44
36 37
36 48
37 45
38 39
38 46
39 46
40 41
41 42
42 43
48 49
